c FILE /home/rafael/Documents/HappySet/MIHS/inputs/happygen/output/graph_scale_free_k7_p0.4_v100_20241127_083900.txt
c SOURCE This is a scale-free graph formed for the happy graph colouring problem.
c DESCRIPTION It was generated using the problem generator of Rhyd Lewis
c
c GRAPH STATS
c Seed                             = -722364315
c Number of Nodes                  = 100
c Number of colours k              = 7
c Number of pre-assignments        = 40
c Number of links per new node     = 5
c Density                          = 0.0979798
c 
c The degrees of nodes 1 to 100, respectively, are as follows 
c [35, 29, 29, 28, 27, 24, 24, 22, 21, 21, 21, 17, 17, 16, 16, 15, 15, 15, 14, 14, 13, 12, 12, 12, 12, 11, 
c  11, 10, 10, 10, 10, 9, 9, 9, 8, 8, 8, 8, 8, 8, 8, 8, 8, 8, 7, 7, 7, 7, 7, 7, 7, 
c  7, 7, 7, 7, 7, 6, 6, 6, 6, 6, 6, 6, 6, 6, 6, 6, 6, 6, 6, 6, 6, 5, 5, 5, 5, 
c  5, 5, 5, 5, 5, 5, 5, 5, 5, 5, 5, 5, 5, 5, 5, 5, 5, 5, 5, 5, 5, 5, 5, 5] 
c  
p edge 100 485 7
e 1 2
e 1 3
e 1 4
e 1 5
e 1 6
e 1 8
e 1 9
e 1 10
e 1 11
e 1 12
e 1 13
e 1 14
e 1 15
e 1 20
e 1 23
e 1 36
e 1 37
e 1 38
e 1 40
e 1 42
e 1 46
e 1 48
e 1 49
e 1 50
e 1 51
e 1 52
e 1 55
e 1 56
e 1 59
e 1 72
e 1 82
e 1 84
e 1 87
e 1 95
e 1 99
e 2 3
e 2 4
e 2 5
e 2 6
e 2 7
e 2 8
e 2 9
e 2 10
e 2 12
e 2 13
e 2 15
e 2 22
e 2 26
e 2 34
e 2 38
e 2 43
e 2 45
e 2 46
e 2 52
e 2 58
e 2 66
e 2 69
e 2 71
e 2 73
e 2 83
e 2 85
e 2 91
e 2 94
e 3 4
e 3 6
e 3 7
e 3 8
e 3 11
e 3 12
e 3 13
e 3 16
e 3 24
e 3 27
e 3 29
e 3 34
e 3 39
e 3 40
e 3 44
e 3 51
e 3 54
e 3 57
e 3 60
e 3 72
e 3 74
e 3 78
e 3 79
e 3 88
e 3 90
e 3 93
e 3 95
e 4 5
e 4 6
e 4 7
e 4 8
e 4 9
e 4 11
e 4 16
e 4 18
e 4 19
e 4 21
e 4 27
e 4 30
e 4 34
e 4 35
e 4 38
e 4 44
e 4 46
e 4 57
e 4 64
e 4 71
e 4 76
e 4 86
e 4 89
e 4 97
e 4 98
e 5 7
e 5 8
e 5 9
e 5 11
e 5 14
e 5 16
e 5 18
e 5 21
e 5 22
e 5 23
e 5 29
e 5 30
e 5 32
e 5 35
e 5 41
e 5 51
e 5 57
e 5 58
e 5 61
e 5 75
e 5 89
e 5 95
e 5 97
e 5 100
e 6 8
e 6 9
e 6 10
e 6 14
e 6 15
e 6 16
e 6 19
e 6 25
e 6 26
e 6 28
e 6 30
e 6 35
e 6 37
e 6 39
e 6 57
e 6 59
e 6 62
e 6 68
e 6 74
e 6 89
e 7 9
e 7 12
e 7 13
e 7 15
e 7 16
e 7 20
e 7 30
e 7 32
e 7 34
e 7 36
e 7 37
e 7 42
e 7 44
e 7 49
e 7 50
e 7 56
e 7 63
e 7 68
e 7 80
e 7 98
e 8 9
e 8 10
e 8 17
e 8 21
e 8 22
e 8 24
e 8 38
e 8 47
e 8 62
e 8 65
e 8 67
e 8 71
e 8 72
e 8 75
e 8 76
e 8 88
e 9 10
e 9 12
e 9 13
e 9 14
e 9 21
e 9 23
e 9 28
e 9 36
e 9 37
e 9 57
e 9 61
e 9 62
e 9 69
e 9 71
e 10 11
e 10 19
e 10 23
e 10 27
e 10 29
e 10 32
e 10 33
e 10 35
e 10 39
e 10 41
e 10 54
e 10 55
e 10 59
e 10 87
e 10 90
e 10 98
e 11 14
e 11 17
e 11 22
e 11 34
e 11 35
e 11 36
e 11 45
e 11 47
e 11 58
e 11 63
e 11 65
e 11 66
e 11 81
e 11 86
e 11 92
e 11 99
e 12 29
e 12 33
e 12 36
e 12 43
e 12 45
e 12 50
e 12 60
e 12 68
e 12 73
e 12 75
e 12 82
e 12 91
e 13 17
e 13 19
e 13 23
e 13 24
e 13 25
e 13 33
e 13 44
e 13 45
e 13 48
e 13 63
e 13 70
e 13 77
e 14 22
e 14 25
e 14 27
e 14 28
e 14 30
e 14 40
e 14 62
e 14 65
e 14 67
e 14 82
e 14 88
e 15 16
e 15 17
e 15 20
e 15 24
e 15 28
e 15 42
e 15 49
e 15 62
e 15 70
e 15 73
e 15 96
e 15 97
e 16 18
e 16 20
e 16 46
e 16 52
e 16 64
e 16 81
e 16 85
e 16 89
e 16 93
e 17 26
e 17 33
e 17 35
e 17 39
e 17 40
e 17 50
e 17 73
e 17 78
e 17 79
e 17 86
e 17 92
e 18 20
e 18 26
e 18 28
e 18 32
e 18 38
e 18 41
e 18 58
e 18 77
e 18 81
e 18 87
e 18 92
e 18 98
e 19 21
e 19 43
e 19 48
e 19 58
e 19 60
e 19 63
e 19 69
e 19 78
e 19 88
e 19 97
e 20 43
e 20 49
e 20 59
e 20 60
e 20 67
e 20 74
e 20 76
e 20 82
e 20 84
e 21 23
e 21 31
e 21 54
e 21 55
e 21 65
e 21 73
e 21 93
e 21 95
e 22 24
e 22 25
e 22 33
e 22 48
e 22 53
e 22 65
e 22 97
e 23 32
e 23 45
e 23 59
e 23 67
e 23 75
e 23 93
e 24 46
e 24 53
e 24 61
e 24 66
e 24 72
e 24 75
e 24 88
e 25 28
e 25 39
e 25 47
e 25 50
e 25 51
e 25 53
e 25 76
e 25 89
e 26 42
e 26 46
e 26 52
e 26 66
e 26 68
e 26 74
e 26 99
e 27 29
e 27 43
e 27 47
e 27 53
e 27 55
e 27 83
e 27 94
e 28 29
e 28 36
e 28 48
e 28 51
e 29 31
e 29 49
e 29 54
e 29 70
e 30 31
e 30 47
e 30 52
e 30 61
e 30 96
e 31 38
e 31 63
e 31 70
e 31 80
e 31 83
e 31 91
e 31 100
e 32 35
e 32 41
e 32 69
e 32 79
e 33 37
e 33 85
e 33 86
e 33 91
e 34 61
e 34 78
e 34 79
e 34 80
e 35 85
e 36 86
e 36 96
e 37 41
e 37 64
e 37 100
e 38 60
e 38 78
e 39 53
e 39 84
e 39 96
e 40 42
e 40 46
e 40 74
e 40 99
e 41 64
e 41 90
e 41 92
e 42 82
e 42 83
e 42 84
e 43 54
e 43 56
e 43 83
e 44 50
e 44 77
e 44 79
e 44 80
e 45 68
e 45 99
e 47 94
e 47 100
e 48 92
e 48 96
e 49 66
e 49 81
e 50 56
e 51 63
e 51 85
e 52 77
e 52 95
e 53 90
e 53 94
e 54 80
e 54 100
e 55 64
e 55 91
e 55 98
e 56 58
e 56 84
e 56 90
e 57 81
e 59 71
e 60 67
e 61 64
e 62 87
e 65 76
e 66 77
e 67 72
e 68 69
e 69 70
e 70 93
e 71 94
e 72 87
n 3 2
n 15 3
n 23 4
n 25 3
n 31 5
n 33 1
n 34 2
n 35 1
n 36 5
n 37 1
n 42 3
n 43 6
n 44 2
n 47 3
n 48 6
n 52 2
n 55 5
n 57 2
n 59 4
n 60 2
n 61 2
n 63 5
n 68 4
n 69 4
n 72 2
n 73 3
n 75 4
n 78 2
n 79 2
n 81 2
n 85 1
n 87 2
n 89 3
n 90 2
n 92 6
n 94 3
n 95 2
n 97 3
n 98 5
n 99 7
